33D32945 STP File, STP Format Version 1.0

SECTION Comments
Name "shell_n11_d3_s37"
Problem "Euclidean Steiner Tree Problem"
Remark "Generated with STPGenerator. 3 dimensions."
END

SECTION Graph
Nodes 11
END

SECTION Coordinates
DDD 0 -0.5296790014 0.5308059803 -0.6615777859
DDD 1 -0.3578680145 0.8007591741 -0.4803282515
DDD 2 0.4505262013 -0.8632738144 -0.2275619989
DDD 3 0.8475556200 -0.3577281971 0.3920204179
DDD 4 0.2056593595 0.9474169406 0.2451639623
DDD 5 0.4708245171 -0.1737525389 -0.8649475876
DDD 6 -0.2906690742 0.7590371152 0.5825582778
DDD 7 0.7676066222 0.3939810997 -0.5055284034
DDD 8 -0.8870572590 0.4390650116 0.1426581046
DDD 9 -0.5520507954 -0.5891035913 0.5900820942
DDD 10 -0.1710831642 0.8328681118 0.5263660886
END
